N = 10;
H = 5;
T = 2;

avail = array3d(1..N, 1..H, 1..T, [2, 2, 9, 0, 9, 0, 7, 9, 3, 2, 4, 9, 6, 7, 8, 0, 9, 3, 10, 9, 2, 8, 9, 2, 1, 6, 0, 9, 10, 3, 5, 4, 6, 9, 1, 4, 6, 5, 5, 9, 10, 10, 3, 10, 10, 8, 5, 5, 10, 2, 1, 2, 7, 5, 10, 3, 10, 10, 0, 2, 7, 1, 2, 6, 2, 8, 8, 0, 10, 5, 2, 9, 3, 0, 8, 5, 6, 10, 5, 9, 4, 4, 4, 6, 10, 2, 4, 7, 1, 6, 6, 5, 1, 1, 5, 8, 9, 9, 6, 3]);

r = array2d(1..H, 1..T, [4, 2, 3, 0, 0, 1, 3, 2, 0, 1]);
